presolving:
(round 1, fast)       16872 del vars, 16872 del conss, 0 add conss, 33300 chg bounds, 0 chg sides, 16724 chg coeffs, 0 upgd conss, 0 impls, 16688 clqs
   (0.5s) running MILP presolver
   (0.6s) MILP presolver found nothing
(round 2, exhaustive) 16872 del vars, 16872 del conss, 0 add conss, 33300 chg bounds, 0 chg sides, 16724 chg coeffs, 16836 upgd conss, 0 impls, 16688 clqs
(round 3, fast)       16872 del vars, 16872 del conss, 0 add conss, 33300 chg bounds, 0 chg sides, 33448 chg coeffs, 16836 upgd conss, 0 impls, 16688 clqs
(round 4, medium)     16872 del vars, 33596 del conss, 16576 add conss, 33300 chg bounds, 0 chg sides, 33448 chg coeffs, 16836 upgd conss, 0 impls, 16688 clqs
   (1.4s) probing: 51/16724 (0.3%) - 0 fixings, 0 aggregations, 0 implications, 0 bound changes
   (1.4s) probing aborted: 50/50 successive totally useless probings
   (1.6s) symmetry computation started: requiring (bin +, int -, cont +), (fixed: bin -, int +, cont -)
   (1.6s) no symmetry present
presolving (5 rounds: 5 fast, 3 medium, 2 exhaustive):
 16872 deleted vars, 33596 deleted constraints, 16576 added constraints, 33300 tightened bounds, 0 added holes, 0 changed sides, 33448 changed coefficients
 0 implications, 16688 cliques
presolved problem has 16724 variables (16724 bin, 0 int, 0 impl, 0 cont) and 16688 constraints
  16688 constraints of type <setppc>
Presolving Time: 1.43

 time | node  | left  |LP iter|LP it/n|mem/heur|mdpt |vars |cons |rows |cuts |sepa|confs|strbr|  dualbound   | primalbound  |  gap   | compl. 
p 1.7s|     1 |     0 |     0 |     - |  clique|   0 |  16k|  16k|  16k|   0 |  0 |   0 |   0 | 0.000000e+00 | 4.739068e+04 |    Inf | unknown
  2.9s|     1 |     0 |  2129 |     - |   249M |   0 |  16k|  16k|  16k|   0 |  0 |   1 |   0 | 1.295881e+04 | 4.739068e+04 | 265.70%| unknown
r 2.9s|     1 |     0 |  2129 |     - |rounding|   0 |  16k|  16k|  16k|   0 |  0 |   1 |   0 | 1.295881e+04 | 2.593092e+04 | 100.10%| unknown
i 2.9s|     1 |     0 |  2129 |     - |  oneopt|   0 |  16k|  16k|  16k|   0 |  0 |   1 |   0 | 1.295881e+04 | 2.383492e+04 |  83.93%| unknown
  4.0s|     1 |     0 |  2211 |     - |   253M |   0 |  16k|  16k|  16k|   1 |  1 |   1 |   0 | 1.296500e+04 | 2.383492e+04 |  83.84%| unknown
  4.8s|     1 |     0 |  2293 |     - |   255M |   0 |  16k|  16k|  16k|   3 |  2 |   1 |   0 | 1.297323e+04 | 2.383492e+04 |  83.72%| unknown
  5.7s|     1 |     0 |  2435 |     - |   257M |   0 |  16k|  16k|  16k|   5 |  3 |   1 |   0 | 1.298178e+04 | 2.383492e+04 |  83.60%| unknown
d12.1s|     1 |     0 |  8947 |     - |farkasdi|   0 |  16k|  16k|  16k|   0 |  5 |   1 |   0 | 1.298178e+04 | 1.492204e+04 |  14.95%| unknown
L16.3s|     1 |     0 | 14512 |     - |    rens|   0 |  16k|  16k|  16k|   5 |  5 |   5 |   0 | 1.298178e+04 | 1.351214e+04 |   4.09%| unknown
 16.8s|     1 |     0 | 14512 |     - |   262M |   0 |  16k|  16k|  16k|   5 |  5 |   5 |   0 | 1.298178e+04 | 1.351214e+04 |   4.09%| unknown
 16.9s|     1 |     0 | 14512 |     - |   262M |   0 |  16k|  16k|4010 |   5 |  5 |   5 |   0 | 1.298178e+04 | 1.351214e+04 |   4.09%| unknown
 17.3s|     1 |     0 | 14547 |     - |   264M |   0 |  16k|4007 |4012 |   7 |  6 |   5 |   0 | 1.298682e+04 | 1.351214e+04 |   4.05%| unknown
 17.3s|     1 |     0 | 14547 |     - |   264M |   0 |  16k|4007 |3987 |   7 |  6 |   5 |   0 | 1.298682e+04 | 1.351214e+04 |   4.05%| unknown
(run 1, node 1) restarting after 12729 global fixings of integer variables

(restart) converted 7 cuts from the global cut pool into linear constraints

presolving:
(round 1, fast)       12729 del vars, 0 del conss, 0 add conss, 0 chg bounds, 0 chg sides, 119 chg coeffs, 0 upgd conss, 0 impls, 3964 clqs
   (17.6s) running MILP presolver
   (17.6s) MILP presolver found nothing
(round 2, exhaustive) 12729 del vars, 0 del conss, 0 add conss, 0 chg bounds, 0 chg sides, 119 chg coeffs, 7 upgd conss, 0 impls, 3964 clqs
presolving (3 rounds: 3 fast, 2 medium, 2 exhaustive):
 12729 deleted vars, 0 deleted constraints, 0 added constraints, 0 tightened bounds, 0 added holes, 0 changed sides, 119 changed coefficients
 0 implications, 3964 cliques
presolved problem has 3995 variables (3995 bin, 0 int, 0 impl, 0 cont) and 3973 constraints
      7 constraints of type <knapsack>
   3964 constraints of type <setppc>
      2 constraints of type <logicor>
Presolving Time: 1.72
transformed 5/6 original solutions to the transformed problem space

 time | node  | left  |LP iter|LP it/n|mem/heur|mdpt |vars |cons |rows |cuts |sepa|confs|strbr|  dualbound   | primalbound  |  gap   | compl. 
 18.5s|     1 |     0 | 18047 |     - |   267M |   0 |3995 |3973 |3971 |   0 |  0 |   5 |   0 | 1.298682e+04 | 1.351214e+04 |   4.05%| unknown
 18.7s|     1 |     0 | 18109 |     - |   268M |   0 |3995 |3973 |3972 |   1 |  1 |   5 |   0 | 1.298926e+04 | 1.351214e+04 |   4.03%| unknown
 18.7s|     1 |     0 | 18109 |     - |   268M |   0 |3995 |3973 |3951 |   1 |  1 |   5 |   0 | 1.298926e+04 | 1.351214e+04 |   4.03%| unknown
 19.0s|     1 |     0 | 18258 |     - |   268M |   0 |3995 |3952 |3955 |   5 |  2 |   5 |   0 | 1.300424e+04 | 1.351214e+04 |   3.91%| unknown
 19.0s|     1 |     0 | 18258 |     - |   268M |   0 |3995 |3952 |3891 |   5 |  2 |   5 |   0 | 1.300424e+04 | 1.351214e+04 |   3.91%| unknown
 19.2s|     1 |     0 | 18345 |     - |   269M |   0 |3995 |3888 |3893 |   7 |  3 |   5 |   0 | 1.301195e+04 | 1.351214e+04 |   3.84%| unknown
 19.2s|     1 |     0 | 18345 |     - |   269M |   0 |3995 |3888 |3850 |   7 |  3 |   5 |   0 | 1.301195e+04 | 1.351214e+04 |   3.84%| unknown
 19.4s|     1 |     0 | 18428 |     - |   269M |   0 |3995 |3845 |3852 |   9 |  4 |   5 |   0 | 1.301859e+04 | 1.351214e+04 |   3.79%| unknown
 19.4s|     1 |     0 | 18428 |     - |   269M |   0 |3995 |3845 |3826 |   9 |  4 |   5 |   0 | 1.301859e+04 | 1.351214e+04 |   3.79%| unknown
 19.6s|     1 |     0 | 18428 |     - |   269M |   0 |3995 |3819 |3826 |   9 |  5 |   5 |   0 | 1.301859e+04 | 1.351214e+04 |   3.79%| unknown
 19.8s|     1 |     0 | 18459 |     - |   269M |   0 |3995 |3819 |3828 |  11 |  7 |   5 |   0 | 1.302062e+04 | 1.351214e+04 |   3.77%| unknown
 19.9s|     1 |     0 | 18459 |     - |   269M |   0 |3995 |3819 |3814 |  11 |  7 |   5 |   0 | 1.302062e+04 | 1.351214e+04 |   3.77%| unknown
 20.1s|     1 |     0 | 18547 |     - |   270M |   0 |3995 |3805 |3815 |  12 |  8 |   5 |   0 | 1.302715e+04 | 1.351214e+04 |   3.72%| unknown
 20.1s|     1 |     0 | 18547 |     - |   270M |   0 |3995 |3805 |3779 |  12 |  8 |   5 |   0 | 1.302715e+04 | 1.351214e+04 |   3.72%| unknown
 20.3s|     1 |     0 | 18582 |     - |   270M |   0 |3995 |3769 |3780 |  13 |  9 |   5 |   0 | 1.302881e+04 | 1.351214e+04 |   3.71%| unknown
 time | node  | left  |LP iter|LP it/n|mem/heur|mdpt |vars |cons |rows |cuts |sepa|confs|strbr|  dualbound   | primalbound  |  gap   | compl. 
 20.3s|     1 |     0 | 18582 |     - |   270M |   0 |3995 |3769 |3769 |  13 |  9 |   5 |   0 | 1.302881e+04 | 1.351214e+04 |   3.71%| unknown
 20.5s|     1 |     0 | 18648 |     - |   271M |   0 |3995 |3758 |3770 |  14 | 10 |   5 |   0 | 1.303083e+04 | 1.351214e+04 |   3.69%| unknown
 20.6s|     1 |     0 | 18648 |     - |   271M |   0 |3995 |3758 |3766 |  14 | 10 |   5 |   0 | 1.303083e+04 | 1.351214e+04 |   3.69%| unknown
 20.8s|     1 |     0 | 18680 |     - |   271M |   0 |3995 |3754 |3767 |  15 | 11 |   5 |   0 | 1.303244e+04 | 1.351214e+04 |   3.68%| unknown
 20.8s|     1 |     0 | 18680 |     - |   271M |   0 |3995 |3754 |3759 |  15 | 11 |   5 |   0 | 1.303244e+04 | 1.351214e+04 |   3.68%| unknown
 20.9s|     1 |     0 | 18703 |     - |   271M |   0 |3995 |3746 |3760 |  16 | 12 |   5 |   0 | 1.303294e+04 | 1.351214e+04 |   3.68%| unknown
 20.9s|     1 |     0 | 18703 |     - |   271M |   0 |3995 |3746 |3758 |  16 | 12 |   5 |   0 | 1.303294e+04 | 1.351214e+04 |   3.68%| unknown
 21.0s|     1 |     0 | 18795 |     - |   272M |   0 |3995 |3744 |3759 |  17 | 13 |   5 |   0 | 1.303624e+04 | 1.351214e+04 |   3.65%| unknown
 21.0s|     1 |     0 | 18795 |     - |   272M |   0 |3995 |3744 |3742 |  17 | 13 |   5 |   0 | 1.303624e+04 | 1.351214e+04 |   3.65%| unknown
 21.1s|     1 |     0 | 18872 |     - |   272M |   0 |3995 |3727 |3744 |  19 | 14 |   5 |   0 | 1.303970e+04 | 1.351214e+04 |   3.62%| unknown
 21.2s|     1 |     0 | 18872 |     - |   272M |   0 |3995 |3727 |3719 |  19 | 14 |   5 |   0 | 1.303970e+04 | 1.351214e+04 |   3.62%| unknown
 21.3s|     1 |     0 | 18927 |     - |   273M |   0 |3995 |3702 |3720 |  20 | 15 |   5 |   0 | 1.304229e+04 | 1.351214e+04 |   3.60%| unknown
 21.3s|     1 |     0 | 18927 |     - |   273M |   0 |3995 |3702 |3704 |  20 | 15 |   5 |   0 | 1.304229e+04 | 1.351214e+04 |   3.60%| unknown
 27.6s|     1 |     2 | 25230 |     - |   273M |   0 |3995 |3709 |3704 |  20 | 17 |  29 |  20 | 1.308665e+04 | 1.351214e+04 |   3.25%| unknown
(run 2, node 1) restarting after 289 global fixings of integer variables

(restart) converted 20 cuts from the global cut pool into linear constraints

presolving:
(round 1, fast)       289 del vars, 0 del conss, 0 add conss, 0 chg bounds, 0 chg sides, 2 chg coeffs, 0 upgd conss, 0 impls, 3676 clqs
(round 2, exhaustive) 289 del vars, 0 del conss, 0 add conss, 0 chg bounds, 0 chg sides, 2 chg coeffs, 20 upgd conss, 0 impls, 3676 clqs
presolving (3 rounds: 3 fast, 2 medium, 2 exhaustive):
 289 deleted vars, 0 deleted constraints, 0 added constraints, 0 tightened bounds, 0 added holes, 0 changed sides, 2 changed coefficients
 0 implications, 3676 cliques
presolved problem has 3706 variables (3706 bin, 0 int, 0 impl, 0 cont) and 3729 constraints
     27 constraints of type <knapsack>
   3676 constraints of type <setppc>
     26 constraints of type <logicor>
Presolving Time: 1.81
transformed 6/7 original solutions to the transformed problem space

 time | node  | left  |LP iter|LP it/n|mem/heur|mdpt |vars |cons |rows |cuts |sepa|confs|strbr|  dualbound   | primalbound  |  gap   | compl. 
 28.6s|     1 |     0 | 30758 |     - |   274M |   0 |3706 |3729 |3703 |   0 |  0 |  29 |  20 | 1.308665e+04 | 1.351214e+04 |   3.25%| unknown
 28.7s|     1 |     0 | 30758 |     - |   274M |   0 |3706 |3729 |3694 |   0 |  0 |  29 |  20 | 1.308665e+04 | 1.351214e+04 |   3.25%| unknown
 28.8s|     1 |     0 | 30790 |     - |   275M |   0 |3706 |3720 |3695 |   1 |  1 |  29 |  20 | 1.308665e+04 | 1.351214e+04 |   3.25%| unknown
 28.8s|     1 |     0 | 30790 |     - |   275M |   0 |3706 |3720 |3690 |   1 |  1 |  29 |  20 | 1.308665e+04 | 1.351214e+04 |   3.25%| unknown
 29.0s|     1 |     0 | 30821 |     - |   275M |   0 |3706 |3715 |3691 |   2 |  2 |  29 |  20 | 1.308665e+04 | 1.351214e+04 |   3.25%| unknown
 29.0s|     1 |     0 | 30821 |     - |   275M |   0 |3706 |3715 |3684 |   2 |  2 |  29 |  20 | 1.308665e+04 | 1.351214e+04 |   3.25%| unknown
 29.2s|     1 |     0 | 30889 |     - |   275M |   0 |3706 |3708 |3685 |   3 |  3 |  29 |  20 | 1.308665e+04 | 1.351214e+04 |   3.25%| unknown
 29.2s|     1 |     0 | 30889 |     - |   275M |   0 |3706 |3708 |3670 |   3 |  3 |  29 |  20 | 1.308665e+04 | 1.351214e+04 |   3.25%| unknown
 29.4s|     1 |     0 | 30959 |     - |   276M |   0 |3706 |3693 |3671 |   4 |  4 |  29 |  20 | 1.308665e+04 | 1.351214e+04 |   3.25%| unknown
 29.4s|     1 |     0 | 30959 |     - |   276M |   0 |3706 |3693 |3639 |   4 |  4 |  29 |  20 | 1.308665e+04 | 1.351214e+04 |   3.25%| unknown
 29.5s|     1 |     0 | 30980 |     - |   276M |   0 |3706 |3661 |3640 |   5 |  5 |  29 |  20 | 1.308665e+04 | 1.351214e+04 |   3.25%| unknown
 29.5s|     1 |     0 | 30980 |     - |   276M |   0 |3706 |3661 |3633 |   5 |  5 |  29 |  20 | 1.308665e+04 | 1.351214e+04 |   3.25%| unknown
 29.7s|     1 |     0 | 31016 |     - |   277M |   0 |3706 |3654 |3634 |   6 |  6 |  29 |  20 | 1.308665e+04 | 1.351214e+04 |   3.25%| unknown
 29.7s|     1 |     0 | 31016 |     - |   277M |   0 |3706 |3654 |3623 |   6 |  6 |  29 |  20 | 1.308665e+04 | 1.351214e+04 |   3.25%| unknown
 30.0s|     1 |     0 | 31069 |     - |   277M |   0 |3706 |3643 |3624 |   7 |  7 |  29 |  20 | 1.308665e+04 | 1.351214e+04 |   3.25%| unknown
 time | node  | left  |LP iter|LP it/n|mem/heur|mdpt |vars |cons |rows |cuts |sepa|confs|strbr|  dualbound   | primalbound  |  gap   | compl. 
 30.0s|     1 |     0 | 31069 |     - |   277M |   0 |3706 |3643 |3622 |   7 |  7 |  29 |  20 | 1.308665e+04 | 1.351214e+04 |   3.25%| unknown
 30.2s|     1 |     0 | 31089 |     - |   277M |   0 |3706 |3641 |3623 |   8 |  8 |  29 |  20 | 1.308665e+04 | 1.351214e+04 |   3.25%| unknown
 30.2s|     1 |     0 | 31089 |     - |   277M |   0 |3706 |3641 |3622 |   8 |  8 |  29 |  20 | 1.308665e+04 | 1.351214e+04 |   3.25%| unknown
 30.4s|     1 |     0 | 31106 |     - |   277M |   0 |3706 |3640 |3623 |   9 |  9 |  29 |  20 | 1.308665e+04 | 1.351214e+04 |   3.25%| unknown
 30.4s|     1 |     0 | 31106 |     - |   277M |   0 |3706 |3640 |3619 |   9 |  9 |  29 |  20 | 1.308665e+04 | 1.351214e+04 |   3.25%| unknown
 30.7s|     1 |     0 | 31150 |     - |   278M |   0 |3706 |3636 |3617 |  10 | 10 |  29 |  20 | 1.308665e+04 | 1.351214e+04 |   3.25%| unknown
 30.7s|     1 |     0 | 31150 |     - |   278M |   0 |3706 |3636 |3608 |  10 | 10 |  29 |  20 | 1.308665e+04 | 1.351214e+04 |   3.25%| unknown
 30.8s|     1 |     0 | 31211 |     - |   278M |   0 |3706 |3627 |3610 |  12 | 11 |  29 |  20 | 1.308665e+04 | 1.351214e+04 |   3.25%| unknown
 30.8s|     1 |     0 | 31211 |     - |   278M |   0 |3706 |3627 |3603 |  12 | 11 |  29 |  20 | 1.308665e+04 | 1.351214e+04 |   3.25%| unknown
 31.0s|     1 |     0 | 31372 |     - |   278M |   0 |3706 |3620 |3604 |  13 | 12 |  29 |  20 | 1.308665e+04 | 1.351214e+04 |   3.25%| unknown
 31.0s|     1 |     0 | 31372 |     - |   278M |   0 |3706 |3620 |3573 |  13 | 12 |  29 |  20 | 1.308665e+04 | 1.351214e+04 |   3.25%| unknown
 31.1s|     1 |     0 | 31420 |     - |   279M |   0 |3706 |3589 |3574 |  14 | 13 |  29 |  20 | 1.308665e+04 | 1.351214e+04 |   3.25%| unknown
 31.1s|     1 |     0 | 31420 |     - |   279M |   0 |3706 |3589 |3567 |  14 | 13 |  29 |  20 | 1.308665e+04 | 1.351214e+04 |   3.25%| unknown
 31.2s|     1 |     0 | 31458 |     - |   280M |   0 |3706 |3582 |3569 |  16 | 14 |  29 |  20 | 1.308665e+04 | 1.351214e+04 |   3.25%| unknown
 31.3s|     1 |     0 | 31458 |     - |   280M |   0 |3706 |3582 |3564 |  16 | 14 |  29 |  20 | 1.308665e+04 | 1.351214e+04 |   3.25%| unknown
 time | node  | left  |LP iter|LP it/n|mem/heur|mdpt |vars |cons |rows |cuts |sepa|confs|strbr|  dualbound   | primalbound  |  gap   | compl. 
 31.4s|     1 |     0 | 31502 |     - |   281M |   0 |3706 |3577 |3565 |  17 | 15 |  29 |  20 | 1.308665e+04 | 1.351214e+04 |   3.25%| unknown
 31.4s|     1 |     0 | 31502 |     - |   281M |   0 |3706 |3577 |3557 |  17 | 15 |  29 |  20 | 1.308665e+04 | 1.351214e+04 |   3.25%| unknown
 31.5s|     1 |     0 | 31565 |     - |   281M |   0 |3706 |3569 |3557 |  18 | 16 |  29 |  20 | 1.308665e+04 | 1.351214e+04 |   3.25%| unknown
 31.5s|     1 |     0 | 31565 |     - |   281M |   0 |3706 |3569 |3546 |  18 | 16 |  29 |  20 | 1.308665e+04 | 1.351214e+04 |   3.25%| unknown
 31.6s|     1 |     0 | 31599 |     - |   282M |   0 |3706 |3558 |3547 |  19 | 17 |  29 |  20 | 1.308665e+04 | 1.351214e+04 |   3.25%| unknown
 31.6s|     1 |     0 | 31599 |     - |   282M |   0 |3706 |3558 |3542 |  19 | 17 |  29 |  20 | 1.308665e+04 | 1.351214e+04 |   3.25%| unknown
 31.7s|     1 |     0 | 31625 |     - |   282M |   0 |3706 |3553 |3543 |  20 | 18 |  29 |  20 | 1.308665e+04 | 1.351214e+04 |   3.25%| unknown
 31.8s|     1 |     0 | 31666 |     - |   282M |   0 |3706 |3553 |3544 |  21 | 19 |  29 |  20 | 1.308665e+04 | 1.351214e+04 |   3.25%| unknown
 31.9s|     1 |     0 | 31666 |     - |   282M |   0 |3706 |3553 |3539 |  21 | 19 |  29 |  20 | 1.308665e+04 | 1.351214e+04 |   3.25%| unknown
 32.0s|     1 |     0 | 31712 |     - |   283M |   0 |3706 |3548 |3541 |  23 | 20 |  29 |  20 | 1.308665e+04 | 1.351214e+04 |   3.25%| unknown
L34.3s|     1 |     0 | 36115 |     - |    rens|   0 |3706 |3555 |3541 |  23 | 22 |  41 |  20 | 1.308665e+04 | 1.349843e+04 |   3.15%| unknown
 34.4s|     1 |     0 | 36115 |     - |   283M |   0 |3706 |3555 |3541 |  23 | 22 |  41 |  20 | 1.308665e+04 | 1.349843e+04 |   3.15%| unknown
 34.4s|     1 |     0 | 36115 |     - |   283M |   0 |3706 |3555 |3468 |  23 | 22 |  41 |  20 | 1.308665e+04 | 1.349843e+04 |   3.15%| unknown
 37.9s|     1 |     2 | 36115 |     - |   283M |   0 |3706 |3481 |3468 |  23 | 24 |  41 |  39 | 1.312251e+04 | 1.349843e+04 |   2.86%| unknown
*65.6s|    11 |     2 | 44414 |2590.2 |strongbr|   3 |3706 |3299 |3458 |  23 |  8 |  89 | 211 | 1.320721e+04 | 1.346582e+04 |   1.96%|  55.90%

SCIP Status        : problem is solved [optimal solution found]
Solving Time (sec) : 73.03
Solving Nodes      : 57 (total of 59 nodes in 3 runs)
Primal Bound       : +1.34658151768340e+04 (9 solutions)
Dual Bound         : +1.34658151768340e+04
Gap                : 0.00 %
Solve Status: optimal
Solve Time: 73.05 seconds
